set VV := 0 1 2 3 4 5 6 7 8 9 10 11 12 13 14 15 16 17 18 19 20 21 22 23 ;
set VS := 0 1 2 3 4 5 6 7 8 9 10 11 12 13 14 15 16 17 18 19 20 21 22 23 24 25 26 27 28 29 30 31 32 33 34 35 36 37 38 39 40 41 42 43 44 45 46 47 48 49 50 51 ;
param cv := 
0 25
1 16
2 20
3 22
4 13
5 13
6 16
7 22
8 11
9 14
10 25
11 20
12 19
13 22
14 25
15 17
16 18
17 16
18 21
19 13
20 23
21 17
22 12
23 19
;
param cs := 
0 21
1 27
2 35
3 25
4 35
5 20
6 39
7 37
8 20
9 32
10 30
11 24
12 35
13 20
14 36
15 40
16 34
17 24
18 26
19 23
20 31
21 37
22 22
23 36
24 35
25 39
26 34
27 33
28 32
29 20
30 31
31 38
32 22
33 24
34 27
35 36
36 25
37 40
38 26
39 31
40 32
41 23
42 29
43 32
44 40
45 29
46 32
47 21
48 20
49 36
50 27
51 39
;
param bv:	 0 1 2 3 4 5 6 7 8 9 10 11 12 13 14 15 16 17 18 19 20 21 22 23 := 
		0 0 0 0 0 0 0 0 0 0 0 11 0 0 0 0 0 0 0 0 0 0 0 20 0 
		1 0 0 18 0 0 0 0 0 0 0 0 0 0 0 0 23 0 0 0 0 25 20 0 0 
		2 0 0 0 0 0 0 0 0 0 0 0 0 0 0 0 0 0 0 0 0 0 20 0 0 
		3 0 0 0 0 12 0 0 0 0 0 0 0 0 0 0 0 0 0 0 0 0 0 0 0 
		4 0 0 0 0 0 0 0 0 23 0 0 0 25 0 0 0 0 0 0 0 0 0 0 0 
		5 0 0 0 0 0 0 18 0 0 0 0 0 0 0 0 0 19 0 0 0 0 0 0 0 
		6 0 0 0 0 0 0 0 0 0 0 0 25 0 10 0 10 0 0 22 0 21 0 0 16 
		7 0 0 0 0 0 0 0 0 0 0 14 0 0 0 0 0 0 0 17 0 0 0 0 0 
		8 0 0 0 0 0 0 0 0 0 0 0 0 20 0 0 0 0 0 0 0 0 0 0 0 
		9 0 0 0 0 0 0 0 0 0 0 0 0 0 23 0 0 0 0 0 17 0 0 0 0 
		10 0 0 0 0 0 0 0 0 0 0 0 0 0 12 0 0 0 0 0 0 0 0 0 18 
		11 0 0 0 0 0 0 0 0 0 0 0 0 0 0 11 0 0 0 0 0 0 0 0 16 
		12 0 0 0 0 0 0 0 0 0 0 0 0 0 0 0 0 0 0 0 0 24 12 0 0 
		13 0 0 0 0 0 0 0 0 0 0 0 0 0 0 15 0 0 0 0 15 0 0 0 0 
		14 0 0 0 0 0 0 0 0 0 0 0 0 0 0 0 10 0 0 0 20 0 0 0 0 
		15 0 0 0 0 0 0 0 0 0 0 0 0 0 0 0 0 0 0 0 0 0 0 0 0 
		16 0 0 0 0 0 0 0 0 0 0 0 0 0 0 0 0 0 0 0 0 0 0 0 0 
		17 0 0 0 0 0 0 0 0 0 0 0 0 0 0 0 0 0 0 0 0 0 0 12 0 
		18 0 0 0 0 0 0 0 0 0 0 0 0 0 0 0 0 0 0 0 0 0 0 14 0 
		19 0 0 0 0 0 0 0 0 0 0 0 0 0 0 0 0 0 0 0 0 0 0 0 0 
		20 0 0 0 0 0 0 0 0 0 0 0 0 0 0 0 0 0 0 0 0 0 0 0 0 
		21 0 0 0 0 0 0 0 0 0 0 0 0 0 0 0 0 0 0 0 0 0 0 0 0 
		22 0 0 0 0 0 0 0 0 0 0 0 0 0 0 0 0 0 0 0 0 0 0 0 21 
		23 0 0 0 0 0 0 0 0 0 0 0 0 0 0 0 0 0 0 0 0 0 0 0 0 
;
param bs:	 0 1 2 3 4 5 6 7 8 9 10 11 12 13 14 15 16 17 18 19 20 21 22 23 24 25 26 27 28 29 30 31 32 33 34 35 36 37 38 39 40 41 42 43 44 45 46 47 48 49 50 51 := 
		0 0 0 0 0 0 0 0 0 0 0 0 0 0 0 0 0 0 0 0 0 0 0 0 0 26 0 0 0 0 0 0 0 0 0 0 0 0 0 0 0 0 0 0 0 0 0 0 0 0 0 0 0 
		1 0 0 0 0 0 0 0 0 0 0 0 0 0 0 0 30 0 0 36 0 0 0 0 0 0 0 22 0 39 0 0 0 0 0 0 34 21 0 0 0 0 0 0 25 0 0 0 0 0 0 0 0 
		2 0 0 0 0 0 0 0 0 0 0 0 0 0 0 0 0 0 0 0 0 23 0 0 0 0 0 0 0 0 0 0 0 0 0 0 37 0 0 0 0 0 0 0 0 0 0 0 0 0 0 0 0 
		3 0 0 0 0 31 0 0 0 0 0 0 0 0 0 0 36 0 0 31 0 0 36 0 0 0 0 0 0 0 0 0 0 0 0 28 0 0 0 0 26 0 0 0 0 0 0 0 0 0 0 0 0 
		4 0 0 0 31 0 0 0 0 0 0 0 0 0 0 0 0 0 0 0 0 0 0 0 0 0 26 0 0 0 0 0 0 0 0 0 0 0 0 0 30 0 0 0 0 0 0 0 0 0 31 0 0 
		5 0 0 0 0 0 0 0 0 0 0 0 0 0 0 0 0 0 0 0 40 0 0 0 0 0 0 0 0 0 0 0 0 0 0 0 0 0 0 0 0 0 0 0 0 0 0 27 0 0 0 0 0 
		6 0 0 0 0 0 0 0 0 0 0 0 0 0 29 0 0 0 0 28 0 0 0 0 0 0 0 34 0 0 0 0 0 0 0 0 0 0 29 0 0 0 0 0 0 0 0 0 0 0 0 0 0 
		7 0 0 0 0 0 0 0 0 0 0 0 0 0 0 0 0 0 0 0 0 0 0 0 0 0 0 0 0 0 0 0 0 0 0 0 0 0 0 0 0 24 0 0 0 0 0 0 0 0 0 0 0 
		8 0 0 0 0 0 0 0 0 0 0 31 0 0 0 0 0 0 0 28 0 0 21 0 0 0 0 0 0 0 0 38 0 0 0 24 0 0 0 0 0 0 0 0 0 0 0 0 0 0 0 0 0 
		9 0 0 0 0 0 0 0 0 0 0 0 0 0 0 32 0 0 0 37 0 0 0 0 0 0 0 0 0 0 0 0 0 0 0 0 0 0 0 0 0 0 0 0 0 21 0 39 22 0 0 0 0 
		10 0 0 0 0 0 0 0 0 31 0 0 0 29 0 29 0 0 0 37 0 0 0 0 0 0 0 0 0 0 0 0 0 0 0 0 0 0 0 0 0 0 0 0 0 0 24 0 0 30 0 0 0 
		11 0 0 0 0 0 0 0 0 0 0 0 0 0 0 0 0 0 0 0 0 0 0 0 0 0 40 0 0 0 0 0 0 0 0 0 0 0 0 0 0 0 0 0 0 0 0 0 0 0 0 0 0 
		12 0 0 0 0 0 0 0 0 0 0 29 0 0 31 0 0 0 0 0 0 0 24 0 0 0 40 0 0 0 0 0 0 0 0 0 0 0 0 0 0 0 0 0 0 0 0 0 0 38 0 0 0 
		13 0 0 0 0 0 0 29 0 0 0 0 0 31 0 0 32 0 0 0 0 0 0 0 33 0 0 0 0 0 0 0 0 0 0 0 0 0 0 0 0 0 0 0 0 0 27 0 0 0 0 0 0 
		14 0 0 0 0 0 0 0 0 0 32 29 0 0 0 0 0 0 0 0 0 0 0 0 0 0 0 0 0 0 20 0 0 0 0 0 29 0 0 0 0 0 0 0 0 0 38 0 0 0 0 0 0 
		15 0 30 0 36 0 0 0 0 0 0 0 0 0 32 0 0 0 0 0 0 0 0 0 0 0 0 0 0 0 0 0 0 0 0 0 0 0 0 0 0 0 0 0 0 0 0 0 0 0 0 24 0 
		16 0 0 0 0 0 0 0 0 0 0 0 0 0 0 0 0 0 0 0 0 26 0 0 0 0 0 0 25 0 0 34 0 0 0 0 25 0 0 0 0 25 0 0 33 0 0 0 0 0 0 0 0 
		17 0 0 0 0 0 0 0 0 0 0 0 0 0 0 0 0 0 0 0 27 0 0 0 0 0 0 0 0 0 0 0 0 0 0 0 0 0 0 0 0 0 0 0 0 0 0 0 0 0 0 0 0 
		18 0 36 0 31 0 0 28 0 28 37 37 0 0 0 0 0 0 0 0 0 0 21 0 0 0 0 0 0 0 0 0 0 0 0 0 36 29 0 0 0 0 0 0 0 31 0 0 0 0 0 0 23 
		19 0 0 0 0 0 40 0 0 0 0 0 0 0 0 0 0 0 27 0 0 0 0 0 0 0 0 0 0 0 0 0 0 0 0 0 0 0 0 0 0 0 0 22 0 0 0 0 0 0 0 0 0 
		20 0 0 23 0 0 0 0 0 0 0 0 0 0 0 0 0 26 0 0 0 0 40 0 0 23 0 0 0 33 0 0 0 0 0 0 0 38 0 0 36 0 0 0 0 37 0 0 0 0 0 0 0 
		21 0 0 0 36 0 0 0 0 21 0 0 0 24 0 0 0 0 0 21 0 40 0 22 0 31 0 20 0 0 0 0 0 0 0 24 0 0 0 0 0 0 0 34 0 0 39 0 30 0 23 0 0 
		22 0 0 0 0 0 0 0 0 0 0 0 0 0 0 0 0 0 0 0 0 0 22 0 0 25 0 0 0 0 0 0 0 39 0 0 0 0 0 0 0 0 0 0 32 0 0 0 0 0 0 0 0 
		23 0 0 0 0 0 0 0 0 0 0 0 0 0 33 0 0 0 0 0 0 0 0 0 0 0 0 0 0 0 0 0 0 0 0 0 0 0 0 0 0 0 0 0 0 0 0 0 0 0 0 0 0 
		24 26 0 0 0 0 0 0 0 0 0 0 0 0 0 0 0 0 0 0 0 23 31 25 0 0 0 34 0 0 0 0 0 0 0 0 0 0 0 0 0 0 0 0 0 24 0 0 0 0 0 0 0 
		25 0 0 0 0 26 0 0 0 0 0 0 40 40 0 0 0 0 0 0 0 0 0 0 0 0 0 0 0 0 0 0 0 0 0 0 0 0 0 0 27 0 0 0 0 0 0 0 0 0 0 0 0 
		26 0 22 0 0 0 0 34 0 0 0 0 0 0 0 0 0 0 0 0 0 0 20 0 0 34 0 0 0 0 33 0 0 0 0 0 0 0 0 0 28 0 0 0 0 0 0 24 0 0 35 0 0 
		27 0 0 0 0 0 0 0 0 0 0 0 0 0 0 0 0 25 0 0 0 0 0 0 0 0 0 0 0 0 0 0 0 0 0 0 0 0 0 0 0 0 0 0 0 0 0 0 0 0 0 0 0 
		28 0 39 0 0 0 0 0 0 0 0 0 0 0 0 0 0 0 0 0 0 33 0 0 0 0 0 0 0 0 0 0 0 0 0 40 0 0 0 32 0 0 0 0 0 0 0 0 0 0 0 30 0 
		29 0 0 0 0 0 0 0 0 0 0 0 0 0 0 20 0 0 0 0 0 0 0 0 0 0 0 33 0 0 0 0 0 0 0 34 0 0 0 0 0 0 0 0 31 0 0 0 0 0 0 0 0 
		30 0 0 0 0 0 0 0 0 38 0 0 0 0 0 0 0 34 0 0 0 0 0 0 0 0 0 0 0 0 0 0 0 0 0 0 0 0 0 0 0 0 0 0 32 0 0 0 0 0 0 0 0 
		31 0 0 0 0 0 0 0 0 0 0 0 0 0 0 0 0 0 0 0 0 0 0 0 0 0 0 0 0 0 0 0 0 0 0 0 34 0 0 0 0 0 0 0 0 0 0 0 0 0 0 0 0 
		32 0 0 0 0 0 0 0 0 0 0 0 0 0 0 0 0 0 0 0 0 0 0 39 0 0 0 0 0 0 0 0 0 0 0 0 0 0 0 0 0 0 0 0 31 0 0 0 0 0 0 0 0 
		33 0 0 0 0 0 0 0 0 0 0 0 0 0 0 0 0 0 0 0 0 0 0 0 0 0 0 0 0 0 0 0 0 0 0 0 0 0 0 0 0 0 0 0 0 0 0 0 0 0 0 22 0 
		34 0 0 0 28 0 0 0 0 24 0 0 0 0 0 0 0 0 0 0 0 0 24 0 0 0 0 0 0 40 34 0 0 0 0 0 0 0 0 0 0 0 0 0 0 33 0 0 0 0 0 0 0 
		35 0 34 37 0 0 0 0 0 0 0 0 0 0 0 29 0 25 0 36 0 0 0 0 0 0 0 0 0 0 0 0 34 0 0 0 0 0 0 0 0 0 34 37 0 0 0 0 0 0 0 0 0 
		36 0 21 0 0 0 0 0 0 0 0 0 0 0 0 0 0 0 0 29 0 38 0 0 0 0 0 0 0 0 0 0 0 0 0 0 0 0 0 0 30 31 0 0 0 0 0 0 0 22 0 0 0 
		37 0 0 0 0 0 0 29 0 0 0 0 0 0 0 0 0 0 0 0 0 0 0 0 0 0 0 0 0 0 0 0 0 0 0 0 0 0 0 0 0 0 0 0 0 0 0 0 0 0 0 0 0 
		38 0 0 0 0 0 0 0 0 0 0 0 0 0 0 0 0 0 0 0 0 0 0 0 0 0 0 0 0 32 0 0 0 0 0 0 0 0 0 0 0 0 0 27 0 0 0 0 0 0 0 27 0 
		39 0 0 0 26 30 0 0 0 0 0 0 0 0 0 0 0 0 0 0 0 36 0 0 0 0 27 28 0 0 0 0 0 0 0 0 0 30 0 0 0 0 22 0 0 0 0 0 0 0 0 0 31 
		40 0 0 0 0 0 0 0 24 0 0 0 0 0 0 0 0 25 0 0 0 0 0 0 0 0 0 0 0 0 0 0 0 0 0 0 0 31 0 0 0 0 0 0 0 0 0 0 0 0 0 0 0 
		41 0 0 0 0 0 0 0 0 0 0 0 0 0 0 0 0 0 0 0 0 0 0 0 0 0 0 0 0 0 0 0 0 0 0 0 34 0 0 0 22 0 0 0 0 0 0 0 0 0 0 0 0 
		42 0 0 0 0 0 0 0 0 0 0 0 0 0 0 0 0 0 0 0 22 0 34 0 0 0 0 0 0 0 0 0 0 0 0 0 37 0 0 27 0 0 0 0 0 0 21 0 0 0 0 0 29 
		43 0 25 0 0 0 0 0 0 0 0 0 0 0 0 0 0 33 0 0 0 0 0 32 0 0 0 0 0 0 31 32 0 31 0 0 0 0 0 0 0 0 0 0 0 0 0 0 0 0 0 0 0 
		44 0 0 0 0 0 0 0 0 0 21 0 0 0 0 0 0 0 0 31 0 37 0 0 0 24 0 0 0 0 0 0 0 0 0 33 0 0 0 0 0 0 0 0 0 0 0 0 0 0 0 0 0 
		45 0 0 0 0 0 0 0 0 0 0 24 0 0 27 38 0 0 0 0 0 0 39 0 0 0 0 0 0 0 0 0 0 0 0 0 0 0 0 0 0 0 0 21 0 0 0 0 0 0 0 33 0 
		46 0 0 0 0 0 27 0 0 0 39 0 0 0 0 0 0 0 0 0 0 0 0 0 0 0 0 24 0 0 0 0 0 0 0 0 0 0 0 0 0 0 0 0 0 0 0 0 31 0 0 0 0 
		47 0 0 0 0 0 0 0 0 0 22 0 0 0 0 0 0 0 0 0 0 0 30 0 0 0 0 0 0 0 0 0 0 0 0 0 0 0 0 0 0 0 0 0 0 0 0 31 0 0 0 0 0 
		48 0 0 0 0 0 0 0 0 0 0 30 0 38 0 0 0 0 0 0 0 0 0 0 0 0 0 0 0 0 0 0 0 0 0 0 0 22 0 0 0 0 0 0 0 0 0 0 0 0 0 0 0 
		49 0 0 0 0 31 0 0 0 0 0 0 0 0 0 0 0 0 0 0 0 0 23 0 0 0 0 35 0 0 0 0 0 0 0 0 0 0 0 0 0 0 0 0 0 0 0 0 0 0 0 0 0 
		50 0 0 0 0 0 0 0 0 0 0 0 0 0 0 0 24 0 0 0 0 0 0 0 0 0 0 0 0 30 0 0 0 0 22 0 0 0 0 27 0 0 0 0 0 0 33 0 0 0 0 0 0 
		51 0 0 0 0 0 0 0 0 0 0 0 0 0 0 0 0 0 0 23 0 0 0 0 0 0 0 0 0 0 0 0 0 0 0 0 0 0 0 0 31 0 0 29 0 0 0 0 0 0 0 0 0 
;
